p cnf 79 213
c t mc
-3 1 0
-3 -2 0
-1 2 3 0
4 -5 -6 0
-4 5 -6 0
4 5 6 0
-4 -5 6 0
-7 3 0
-7 6 0
-3 -6 7 0
10 8 0
10 9 0
-8 -9 -10 0
-11 7 0
-11 10 0
-7 -10 11 0
-15 -13 0
-15 -14 0
13 14 15 0
16 -12 0
16 -15 0
12 15 -16 0
-18 16 0
-18 -17 0
-16 17 18 0
-5 3 -19 0
5 -3 -19 0
-5 -3 19 0
5 3 19 0
1 19 -20 0
-1 -19 -20 0
1 -19 20 0
-1 19 20 0
-21 18 0
-21 -20 0
-18 20 21 0
-22 -8 0
-22 12 0
8 -12 22 0
23 4 0
23 -22 0
-4 22 -23 0
23 -24 0
-23 -24 0
-25 4 0
-25 9 0
-4 -9 25 0
5 9 -26 0
-5 -9 -26 0
5 -9 26 0
-5 9 26 0
27 25 0
27 -26 0
-25 26 -27 0
28 24 0
28 -27 0
-24 27 -28 0
21 28 -29 0
-21 -28 -29 0
21 -28 29 0
-21 28 29 0
11 -29 -30 0
-11 29 -30 0
11 29 30 0
-11 -29 30 0
17 -31 -32 0
-17 31 -32 0
17 31 32 0
-17 -31 32 0
-33 30 0
-33 -32 0
-30 32 33 0
-4 34 -35 0
4 -34 -35 0
-4 -34 35 0
4 34 35 0
-39 37 0
-39 -38 0
-37 38 39 0
-40 16 0
-40 -1 0
-16 1 40 0
-41 -39 0
-41 -40 0
39 40 41 0
-42 -36 0
-42 41 0
36 -41 42 0
43 -35 0
43 -42 0
35 42 -43 0
-38 -31 -44 0
38 31 -44 0
-38 31 44 0
38 -31 44 0
-45 43 0
-45 -44 0
-43 44 45 0
6 -14 -46 0
-6 14 -46 0
6 14 46 0
-6 -14 46 0
-45 -46 -47 0
45 46 -47 0
-45 46 47 0
45 -46 47 0
49 48 0
49 5 0
-48 -5 -49 0
51 49 0
51 -50 0
-49 50 -51 0
-52 47 0
-52 -51 0
-47 51 52 0
53 -48 0
53 49 0
48 -49 -53 0
-54 -38 0
-54 6 0
38 -6 54 0
-56 -8 0
-56 55 0
8 -55 56 0
-57 4 0
-57 56 0
-4 -56 57 0
-58 56 0
-58 -39 0
-56 39 58 0
-57 -58 -59 0
57 58 -59 0
-57 58 59 0
57 -58 59 0
-60 -22 0
-60 -59 0
22 59 60 0
61 54 0
61 -60 0
-54 60 -61 0
-62 -53 0
-62 61 0
53 -61 62 0
-65 -63 0
-65 64 0
63 -64 65 0
-62 -65 -66 0
62 65 -66 0
-62 65 66 0
62 -65 66 0
-67 5 0
-67 39 0
-5 -39 67 0
-68 23 0
-68 67 0
-23 -67 68 0
66 -68 -69 0
-66 68 -69 0
66 68 69 0
-66 -68 69 0
52 -69 -70 0
-52 69 -70 0
52 69 70 0
-52 -69 70 0
-71 33 0
-71 70 0
-33 -70 71 0
72 3 0
72 58 0
-3 -58 -72 0
-73 2 0
-73 -38 0
-2 38 73 0
37 -74 -75 0
-37 74 -75 0
37 74 75 0
-37 -74 75 0
76 75 0
76 -5 0
-75 5 -76 0
-73 -76 -77 0
73 76 -77 0
-73 76 77 0
73 -76 77 0
-72 -77 -78 0
72 77 -78 0
-72 77 78 0
72 -77 78 0
79 71 0
79 -78 0
-71 78 -79 0
39 22 45 47 19 59 -67 0
-42 -43 -5 0
66 -50 -76 67 63 44 64 62 74 0
61 57 30 -71 72 66 31 -5 22 0
2 11 62 27 -41 -37 -5 -16 0
35 -33 41 -10 0
-16 46 0
61 -71 -63 19 60 0
-33 10 -29 2 -17 18 59 0
-23 17 0
-34 71 -30 0
12 -45 75 -66 -29 -2 70 0
-8 -26 -52 0
-62 -16 70 -40 0
22 33 21 -34 51 17 0
-31 -10 0
16 53 -36 72 39 55 -11 -48 0
50 -19 0
-11 -66 -47 6 -75 27 0
2 49 75 -4 -32 -50 37 -36 0
13 -61 -8 -23 -67 -53 64 0
79 0
